(set-option :produce-models true)
(define-fun ceil ((x Real)) Int (ite (= (to_int x) x) (to_int x) (+ (to_int x) 1)))
(define-fun min2 ((x Int) (y Int)) Int (ite (< x y) x y))
(define-fun max2 ((x Int) (y Int)) Int (ite (> x y) x y))
(define-fun sqrt ((x Real)) Real (^ x 0.5))

(declare-const hidden_states_size0 Int)
(set-info :example-hidden_states_size0 4)
(declare-const hidden_states_size1 Int)
(set-info :example-hidden_states_size1 1024)
(declare-const hidden_states_size2 Int)
(set-info :example-hidden_states_size2 768)
(declare-const hidden_states_stride0 Int)
(set-info :example-hidden_states_stride0 786432)
(declare-const hidden_states_stride1 Int)
(set-info :example-hidden_states_stride1 768)
(declare-const hidden_states_stride2 Int)
(set-info :example-hidden_states_stride2 1)
(declare-const hidden_states_storage_offset Int)
(set-info :example-hidden_states_storage_offset 0)
(define-fun ge () Bool (>= hidden_states_size0 0))
(assert ge)
(define-fun ge_1 () Bool (>= hidden_states_size1 0))
(assert ge_1)
(define-fun ge_2 () Bool (>= hidden_states_size2 0))
(assert ge_2)
(define-fun eq () Bool (= hidden_states_size0 0))
(define-fun not_ () Bool (not eq))
(assert not_)
(define-fun sub () Int (- hidden_states_size0 1))
(define-fun mul () Int (* hidden_states_stride0 sub))
(define-fun add () Int (+ 1 mul))
(define-fun eq_1 () Bool (= hidden_states_size1 0))
(define-fun not__1 () Bool (not eq_1))
(assert not__1)
(define-fun sub_1 () Int (- hidden_states_size1 1))
(define-fun mul_1 () Int (* hidden_states_stride1 sub_1))
(define-fun add_1 () Int (+ add mul_1))
(define-fun eq_2 () Bool (= hidden_states_size2 0))
(define-fun not__2 () Bool (not eq_2))
(assert not__2)
(define-fun sub_2 () Int (- hidden_states_size2 1))
(define-fun mul_2 () Int (* hidden_states_stride2 sub_2))
(define-fun add_2 () Int (+ add_1 mul_2))
(define-fun mul_3 () Int (* 4 add_2))
(define-fun mul_4 () Int (* hidden_states_size0 hidden_states_size1))
(define-fun mul_5 () Int (* mul_4 hidden_states_size2))
(define-fun eq_3 () Bool (= mul_5 0))
(define-fun not__3 () Bool (not eq_3))
(assert not__3)
(define-fun eq_4 () Bool (= hidden_states_size2 1))
(define-fun not__4 () Bool (not eq_4))
(assert not__4)
(define-fun eq_5 () Bool (= hidden_states_stride2 1))
(assert eq_5)
(define-fun eq_6 () Bool (= hidden_states_size1 1))
(define-fun not__5 () Bool (not eq_6))
(assert not__5)
(define-fun eq_7 () Bool (= hidden_states_stride1 hidden_states_size2))
(assert eq_7)
(define-fun mul_6 () Int (* hidden_states_size2 hidden_states_size1))
(define-fun eq_8 () Bool (= hidden_states_size0 1))
(define-fun not__6 () Bool (not eq_8))
(assert not__6)
(define-fun eq_9 () Bool (= hidden_states_stride0 mul_6))
(assert eq_9)
(define-fun mul_7 () Int (* mul_6 hidden_states_size0))
(define-fun eq_10 () Bool (= hidden_states_size0 hidden_states_size0))
(assert eq_10)
(define-fun eq_11 () Bool (= hidden_states_size1 hidden_states_size1))
(assert eq_11)
(define-fun eq_12 () Bool (= hidden_states_size2 hidden_states_size2))
(assert eq_12)
(define-fun eq_13 () Bool (= hidden_states_stride2 0))
(define-fun not__7 () Bool (not eq_13))
(assert not__7)
(define-fun eq_14 () Bool (= hidden_states_stride1 0))
(define-fun not__8 () Bool (not eq_14))
(assert not__8)
(define-fun lt () Bool (< hidden_states_stride2 hidden_states_stride1))
(assert lt)
(define-fun eq_15 () Bool (= hidden_states_stride0 0))
(define-fun not__9 () Bool (not eq_15))
(assert not__9)
(define-fun lt_1 () Bool (< hidden_states_stride1 hidden_states_stride0))
(assert lt_1)
(define-fun mul_8 () Int (* mul_6 sub))
(define-fun add_3 () Int (+ 1 mul_8))
(define-fun mul_9 () Int (* hidden_states_size2 sub_1))
(define-fun add_4 () Int (+ add_3 mul_9))
(define-fun add_5 () Int (+ add_4 sub_2))
(define-fun mul_10 () Int (* 4 add_5))
(define-fun eq_16 () Bool (= mul_6 mul_6))
(assert eq_16)
(define-fun ge_3 () Bool (>= hidden_states_storage_offset 0))
(assert ge_3)
(define-fun add_6 () Int (+ hidden_states_storage_offset add_2))
(define-fun mul_11 () Int (* 4 add_6))
(declare-const band_mask_size0 Int)
(set-info :example-band_mask_size0 4)
(declare-const band_mask_size1 Int)
(set-info :example-band_mask_size1 1)
(declare-const band_mask_size2 Int)
(set-info :example-band_mask_size2 12)
(declare-const band_mask_size3 Int)
(set-info :example-band_mask_size3 64)
(declare-const band_mask_size4 Int)
(set-info :example-band_mask_size4 192)
(declare-const band_mask_stride0 Int)
(set-info :example-band_mask_stride0 147456)
(declare-const band_mask_stride1 Int)
(set-info :example-band_mask_stride1 147456)
(declare-const band_mask_stride2 Int)
(set-info :example-band_mask_stride2 12288)
(declare-const band_mask_stride3 Int)
(set-info :example-band_mask_stride3 192)
(declare-const band_mask_stride4 Int)
(set-info :example-band_mask_stride4 1)
(declare-const band_mask_storage_offset Int)
(set-info :example-band_mask_storage_offset 0)
(define-fun ge_4 () Bool (>= band_mask_size0 0))
(assert ge_4)
(define-fun ge_5 () Bool (>= band_mask_size1 0))
(assert ge_5)
(define-fun ge_6 () Bool (>= band_mask_size2 0))
(assert ge_6)
(define-fun ge_7 () Bool (>= band_mask_size3 0))
(assert ge_7)
(define-fun ge_8 () Bool (>= band_mask_size4 0))
(assert ge_8)
(define-fun eq_17 () Bool (= band_mask_size0 0))
(define-fun not__10 () Bool (not eq_17))
(assert not__10)
(define-fun sub_3 () Int (- band_mask_size0 1))
(define-fun mul_12 () Int (* band_mask_stride0 sub_3))
(define-fun add_7 () Int (+ 1 mul_12))
(define-fun eq_18 () Bool (= band_mask_size1 0))
(define-fun not__11 () Bool (not eq_18))
(assert not__11)
(define-fun sub_4 () Int (- band_mask_size1 1))
(define-fun mul_13 () Int (* band_mask_stride1 sub_4))
(define-fun add_8 () Int (+ add_7 mul_13))
(define-fun eq_19 () Bool (= band_mask_size2 0))
(define-fun not__12 () Bool (not eq_19))
(assert not__12)
(define-fun sub_5 () Int (- band_mask_size2 1))
(define-fun mul_14 () Int (* band_mask_stride2 sub_5))
(define-fun add_9 () Int (+ add_8 mul_14))
(define-fun eq_20 () Bool (= band_mask_size3 0))
(define-fun not__13 () Bool (not eq_20))
(assert not__13)
(define-fun sub_6 () Int (- band_mask_size3 1))
(define-fun mul_15 () Int (* band_mask_stride3 sub_6))
(define-fun add_10 () Int (+ add_9 mul_15))
(define-fun eq_21 () Bool (= band_mask_size4 0))
(define-fun not__14 () Bool (not eq_21))
(assert not__14)
(define-fun sub_7 () Int (- band_mask_size4 1))
(define-fun mul_16 () Int (* band_mask_stride4 sub_7))
(define-fun add_11 () Int (+ add_10 mul_16))
(define-fun mul_17 () Int (* 4 add_11))
(define-fun mul_18 () Int (* band_mask_size0 band_mask_size1))
(define-fun mul_19 () Int (* mul_18 band_mask_size2))
(define-fun mul_20 () Int (* mul_19 band_mask_size3))
(define-fun mul_21 () Int (* mul_20 band_mask_size4))
(define-fun eq_22 () Bool (= mul_21 0))
(define-fun not__15 () Bool (not eq_22))
(assert not__15)
(define-fun eq_23 () Bool (= band_mask_size4 1))
(define-fun not__16 () Bool (not eq_23))
(assert not__16)
(define-fun eq_24 () Bool (= band_mask_stride4 1))
(assert eq_24)
(define-fun eq_25 () Bool (= band_mask_size3 1))
(define-fun not__17 () Bool (not eq_25))
(assert not__17)
(define-fun eq_26 () Bool (= band_mask_stride3 band_mask_size4))
(assert eq_26)
(define-fun mul_22 () Int (* band_mask_size4 band_mask_size3))
(define-fun eq_27 () Bool (= band_mask_size2 1))
(define-fun not__18 () Bool (not eq_27))
(assert not__18)
(define-fun eq_28 () Bool (= band_mask_stride2 mul_22))
(assert eq_28)
(define-fun mul_23 () Int (* mul_22 band_mask_size2))
(define-fun eq_29 () Bool (= band_mask_size1 1))
(assert eq_29)
(define-fun eq_30 () Bool (= band_mask_size0 1))
(define-fun not__19 () Bool (not eq_30))
(assert not__19)
(define-fun eq_31 () Bool (= band_mask_stride0 mul_23))
(assert eq_31)
(define-fun mul_24 () Int (* mul_23 band_mask_size0))
(define-fun eq_32 () Bool (= band_mask_stride1 0))
(define-fun not__20 () Bool (not eq_32))
(assert not__20)
(define-fun lt_2 () Bool (< band_mask_stride1 0))
(define-fun not__21 () Bool (not lt_2))
(assert not__21)
(define-fun gt () Bool (> band_mask_size1 1))
(define-fun not__22 () Bool (not gt))
(assert not__22)
(define-fun lt_3 () Bool (< band_mask_stride4 band_mask_stride1))
(assert lt_3)
(define-fun ge_9 () Bool (>= band_mask_storage_offset 0))
(assert ge_9)
(define-fun add_12 () Int (+ band_mask_storage_offset add_11))
(define-fun mul_25 () Int (* 4 add_12))
(declare-const from_mask__base_size0 Int)
(set-info :example-from_mask__base_size0 4)
(declare-const from_mask__base_size1 Int)
(set-info :example-from_mask__base_size1 1024)
(declare-const from_mask__base_stride0 Int)
(set-info :example-from_mask__base_stride0 1024)
(declare-const from_mask__base_stride1 Int)
(set-info :example-from_mask__base_stride1 1)
(declare-const from_mask__base_storage_offset Int)
(set-info :example-from_mask__base_storage_offset 0)
(define-fun ge_10 () Bool (>= from_mask__base_size0 0))
(assert ge_10)
(define-fun ge_11 () Bool (>= from_mask__base_size1 0))
(assert ge_11)
(define-fun eq_33 () Bool (= from_mask__base_size0 0))
(define-fun not__23 () Bool (not eq_33))
(assert not__23)
(define-fun sub_8 () Int (- from_mask__base_size0 1))
(define-fun mul_26 () Int (* from_mask__base_stride0 sub_8))
(define-fun add_13 () Int (+ 1 mul_26))
(define-fun eq_34 () Bool (= from_mask__base_size1 0))
(define-fun not__24 () Bool (not eq_34))
(assert not__24)
(define-fun sub_9 () Int (- from_mask__base_size1 1))
(define-fun mul_27 () Int (* from_mask__base_stride1 sub_9))
(define-fun add_14 () Int (+ add_13 mul_27))
(define-fun mul_28 () Int (* 4 add_14))
(define-fun mul_29 () Int (* from_mask__base_size0 from_mask__base_size1))
(define-fun eq_35 () Bool (= mul_29 0))
(define-fun not__25 () Bool (not eq_35))
(assert not__25)
(define-fun eq_36 () Bool (= from_mask__base_size1 1))
(define-fun not__26 () Bool (not eq_36))
(assert not__26)
(define-fun eq_37 () Bool (= from_mask__base_stride1 1))
(assert eq_37)
(define-fun eq_38 () Bool (= from_mask__base_size0 1))
(define-fun not__27 () Bool (not eq_38))
(assert not__27)
(define-fun eq_39 () Bool (= from_mask__base_stride0 from_mask__base_size1))
(assert eq_39)
(define-fun mul_30 () Int (* from_mask__base_size1 from_mask__base_size0))
(define-fun ge_12 () Bool (>= from_mask__base_storage_offset 0))
(assert ge_12)
(define-fun add_15 () Int (+ from_mask__base_storage_offset add_14))
(define-fun mul_31 () Int (* 4 add_15))
(declare-const from_mask_size0 Int)
(set-info :example-from_mask_size0 4)
(declare-const from_mask_size1 Int)
(set-info :example-from_mask_size1 1)
(declare-const from_mask_size2 Int)
(set-info :example-from_mask_size2 1024)
(declare-const from_mask_size3 Int)
(set-info :example-from_mask_size3 1)
(declare-const from_mask_stride0 Int)
(set-info :example-from_mask_stride0 1024)
(declare-const from_mask_stride1 Int)
(set-info :example-from_mask_stride1 1024)
(declare-const from_mask_stride2 Int)
(set-info :example-from_mask_stride2 1)
(declare-const from_mask_stride3 Int)
(set-info :example-from_mask_stride3 1)
(declare-const from_mask_storage_offset Int)
(set-info :example-from_mask_storage_offset 0)
(define-fun mul_32 () Int (* from_mask_size0 from_mask_size1))
(define-fun mul_33 () Int (* mul_32 from_mask_size2))
(define-fun mul_34 () Int (* mul_33 from_mask_size3))
(define-fun eq_40 () Bool (= mul_34 0))
(define-fun not__28 () Bool (not eq_40))
(assert not__28)
(define-fun eq_41 () Bool (= from_mask_size3 1))
(assert eq_41)
(define-fun eq_42 () Bool (= from_mask_size2 1))
(define-fun not__29 () Bool (not eq_42))
(assert not__29)
(define-fun eq_43 () Bool (= from_mask_stride2 1))
(assert eq_43)
(define-fun eq_44 () Bool (= from_mask_size1 1))
(assert eq_44)
(define-fun eq_45 () Bool (= from_mask_size0 1))
(define-fun not__30 () Bool (not eq_45))
(assert not__30)
(define-fun eq_46 () Bool (= from_mask_stride0 from_mask_size2))
(assert eq_46)
(define-fun mul_35 () Int (* from_mask_size2 from_mask_size0))
(define-fun eq_47 () Bool (= from_mask_stride1 0))
(define-fun not__31 () Bool (not eq_47))
(assert not__31)
(define-fun eq_48 () Bool (= from_mask_size1 0))
(define-fun not__32 () Bool (not eq_48))
(assert not__32)
(define-fun lt_4 () Bool (< from_mask_stride1 0))
(define-fun not__33 () Bool (not lt_4))
(assert not__33)
(define-fun gt_1 () Bool (> from_mask_size1 1))
(define-fun not__34 () Bool (not gt_1))
(assert not__34)
(define-fun eq_49 () Bool (= from_mask_size3 0))
(define-fun not__35 () Bool (not eq_49))
(assert not__35)
(define-fun lt_5 () Bool (< from_mask_stride3 from_mask_stride1))
(assert lt_5)
(declare-const to_mask_size0 Int)
(set-info :example-to_mask_size0 4)
(declare-const to_mask_size1 Int)
(set-info :example-to_mask_size1 1)
(declare-const to_mask_size2 Int)
(set-info :example-to_mask_size2 1)
(declare-const to_mask_size3 Int)
(set-info :example-to_mask_size3 1024)
(declare-const to_mask_stride0 Int)
(set-info :example-to_mask_stride0 1024)
(declare-const to_mask_stride1 Int)
(set-info :example-to_mask_stride1 1024)
(declare-const to_mask_stride2 Int)
(set-info :example-to_mask_stride2 1024)
(declare-const to_mask_stride3 Int)
(set-info :example-to_mask_stride3 1)
(declare-const to_mask_storage_offset Int)
(set-info :example-to_mask_storage_offset 0)
(define-fun mul_36 () Int (* to_mask_size0 to_mask_size1))
(define-fun mul_37 () Int (* mul_36 to_mask_size2))
(define-fun mul_38 () Int (* mul_37 to_mask_size3))
(define-fun eq_50 () Bool (= mul_38 0))
(define-fun not__36 () Bool (not eq_50))
(assert not__36)
(define-fun eq_51 () Bool (= to_mask_size3 1))
(define-fun not__37 () Bool (not eq_51))
(assert not__37)
(define-fun eq_52 () Bool (= to_mask_stride3 1))
(assert eq_52)
(define-fun eq_53 () Bool (= to_mask_size2 1))
(assert eq_53)
(define-fun eq_54 () Bool (= to_mask_size1 1))
(assert eq_54)
(define-fun eq_55 () Bool (= to_mask_size0 1))
(define-fun not__38 () Bool (not eq_55))
(assert not__38)
(define-fun eq_56 () Bool (= to_mask_stride0 to_mask_size3))
(assert eq_56)
(define-fun mul_39 () Int (* to_mask_size3 to_mask_size0))
(define-fun eq_57 () Bool (= to_mask_stride1 0))
(define-fun not__39 () Bool (not eq_57))
(assert not__39)
(define-fun eq_58 () Bool (= to_mask_size1 0))
(define-fun not__40 () Bool (not eq_58))
(assert not__40)
(define-fun lt_6 () Bool (< to_mask_stride1 0))
(define-fun not__41 () Bool (not lt_6))
(assert not__41)
(define-fun gt_2 () Bool (> to_mask_size1 1))
(define-fun not__42 () Bool (not gt_2))
(assert not__42)
(define-fun eq_59 () Bool (= to_mask_size3 0))
(define-fun not__43 () Bool (not eq_59))
(assert not__43)
(define-fun lt_7 () Bool (< to_mask_stride3 to_mask_stride1))
(assert lt_7)
(declare-const from_blocked_mask_size0 Int)
(set-info :example-from_blocked_mask_size0 4)
(declare-const from_blocked_mask_size1 Int)
(set-info :example-from_blocked_mask_size1 16)
(declare-const from_blocked_mask_size2 Int)
(set-info :example-from_blocked_mask_size2 64)
(declare-const from_blocked_mask_stride0 Int)
(set-info :example-from_blocked_mask_stride0 1024)
(declare-const from_blocked_mask_stride1 Int)
(set-info :example-from_blocked_mask_stride1 64)
(declare-const from_blocked_mask_stride2 Int)
(set-info :example-from_blocked_mask_stride2 1)
(declare-const from_blocked_mask_storage_offset Int)
(set-info :example-from_blocked_mask_storage_offset 0)
(define-fun mul_40 () Int (* from_blocked_mask_size0 from_blocked_mask_size1))
(define-fun mul_41 () Int (* mul_40 from_blocked_mask_size2))
(define-fun eq_60 () Bool (= mul_41 0))
(define-fun not__44 () Bool (not eq_60))
(assert not__44)
(define-fun eq_61 () Bool (= from_blocked_mask_size2 1))
(define-fun not__45 () Bool (not eq_61))
(assert not__45)
(define-fun eq_62 () Bool (= from_blocked_mask_stride2 1))
(assert eq_62)
(define-fun eq_63 () Bool (= from_blocked_mask_size1 1))
(define-fun not__46 () Bool (not eq_63))
(assert not__46)
(define-fun eq_64 () Bool (= from_blocked_mask_stride1 from_blocked_mask_size2))
(assert eq_64)
(define-fun mul_42 () Int (* from_blocked_mask_size2 from_blocked_mask_size1))
(define-fun eq_65 () Bool (= from_blocked_mask_size0 1))
(define-fun not__47 () Bool (not eq_65))
(assert not__47)
(define-fun eq_66 () Bool (= from_blocked_mask_stride0 mul_42))
(assert eq_66)
(define-fun mul_43 () Int (* mul_42 from_blocked_mask_size0))
(define-fun mod () Int (mod hidden_states_size1 64))
(define-fun eq_67 () Bool (= mod 0))
(assert eq_67)
(define-fun eq_68 () Bool (= mul_4 -1))
(define-fun not__48 () Bool (not eq_68))
(assert not__48)
(define-fun ge_13 () Bool (>= mul_4 0))
(assert ge_13)
(define-fun eq_69 () Bool (= hidden_states_size2 -1))
(define-fun not__49 () Bool (not eq_69))
(assert not__49)
(define-fun eq_70 () Bool (= mul_5 mul_5))
(assert eq_70)
(define-fun eq_71 () Bool (= hidden_states_size0 mul_4))
(define-fun not__50 () Bool (not eq_71))
(assert not__50)
(define-fun eq_72 () Bool (= mul_4 hidden_states_size0))
(define-fun not__51 () Bool (not eq_72))
(assert not__51)
(define-fun mod_1 () Int (mod hidden_states_size0 mul_4))
(define-fun eq_73 () Bool (= mod_1 0))
(define-fun not__52 () Bool (not eq_73))
(assert not__52)
(define-fun mod_2 () Int (mod mul_4 mul_4))
(define-fun eq_74 () Bool (= mod_2 0))
(assert eq_74)
(define-fun mul_44 () Int (* hidden_states_size1 hidden_states_size0))
(define-fun lt_8 () Bool (< hidden_states_stride0 hidden_states_stride1))
(define-fun not__53 () Bool (not lt_8))
(assert not__53)
(define-fun gt_3 () Bool (> mul_5 0))
(assert gt_3)
(define-fun mul_45 () Int (* hidden_states_stride1 hidden_states_size1))
(define-fun eq_75 () Bool (= hidden_states_stride0 mul_45))
(assert eq_75)
(define-fun mul_46 () Int (* mul_44 hidden_states_size2))
(define-fun eq_76 () Bool (= mul_46 0))
(define-fun not__54 () Bool (not eq_76))
(assert not__54)
(define-fun eq_77 () Bool (= mul_44 1))
(define-fun not__55 () Bool (not eq_77))
(assert not__55)
(define-fun mul_47 () Int (* hidden_states_size2 mul_44))
(define-fun eq_78 () Bool (= mul_4 mul_4))
(assert eq_78)
(define-fun eq_79 () Bool (= hidden_states_size2 768))
(assert eq_79)
(define-fun ge_14 () Bool (>= mul_44 0))
(assert ge_14)
(define-fun eq_80 () Bool (= mul_44 0))
(define-fun not__56 () Bool (not eq_80))
(assert not__56)
(define-fun mul_48 () Int (* 768 mul_44))
(define-fun sub_10 () Int (- mul_44 1))
(define-fun mul_49 () Int (* 768 sub_10))
(define-fun add_16 () Int (+ 1 mul_49))
(define-fun add_17 () Int (+ add_16 767))
(define-fun mul_50 () Int (* 4 add_17))
(define-fun mul_51 () Int (* mul_44 768))
(define-fun eq_81 () Bool (= mul_51 0))
(define-fun not__57 () Bool (not eq_81))
(assert not__57)
(define-fun lt_9 () Bool (< mul_44 0))
(define-fun not__58 () Bool (not lt_9))
(assert not__58)
(define-fun eq_82 () Bool (= mul_44 mul_44))
(assert eq_82)
(define-fun lt_10 () Bool (< mul_44 2))
(define-fun not__59 () Bool (not lt_10))
(assert not__59)
(define-fun eq_83 () Bool (= hidden_states_size0 -1))
(define-fun not__60 () Bool (not eq_83))
(assert not__60)
(define-fun eq_84 () Bool (= hidden_states_size1 -1))
(define-fun not__61 () Bool (not eq_84))
(assert not__61)
(define-fun mul_52 () Int (* mul_4 768))
(define-fun eq_85 () Bool (= mul_51 mul_52))
(assert eq_85)
(define-fun eq_86 () Bool (= mul_44 hidden_states_size0))
(define-fun not__62 () Bool (not eq_86))
(assert not__62)
(define-fun eq_87 () Bool (= hidden_states_size0 mul_44))
(define-fun not__63 () Bool (not eq_87))
(assert not__63)
(define-fun mod_3 () Int (mod mul_44 hidden_states_size0))
(define-fun eq_88 () Bool (= mod_3 0))
(assert eq_88)
(define-fun floordiv () Int (div mul_44 hidden_states_size0))
(define-fun mul_53 () Int (* 768 floordiv))
(define-fun mul_54 () Int (* hidden_states_size0 floordiv))
(define-fun mul_55 () Int (* mul_54 768))
(define-fun eq_89 () Bool (= mul_55 0))
(define-fun not__64 () Bool (not eq_89))
(assert not__64)
(define-fun eq_90 () Bool (= floordiv 1))
(define-fun not__65 () Bool (not eq_90))
(assert not__65)
(define-fun eq_91 () Bool (= mul_53 mul_53))
(assert eq_91)
(define-fun mul_56 () Int (* mul_53 hidden_states_size0))
(define-fun eq_92 () Bool (= hidden_states_size1 floordiv))
(assert eq_92)
(define-fun eq_93 () Bool (= floordiv -1))
(define-fun not__66 () Bool (not eq_93))
(assert not__66)
(define-fun ge_15 () Bool (>= floordiv 0))
(assert ge_15)
(define-fun mul_57 () Int (* mul_54 12))
(define-fun mul_58 () Int (* mul_57 64))
(define-fun eq_94 () Bool (= mul_55 mul_58))
(assert eq_94)
(define-fun eq_95 () Bool (= floordiv floordiv))
(assert eq_95)
(define-fun eq_96 () Bool (= mul_58 0))
(define-fun not__67 () Bool (not eq_96))
(assert not__67)
(define-fun eq_97 () Bool (= floordiv 0))
(define-fun not__68 () Bool (not eq_97))
(assert not__68)
(define-fun gt_4 () Bool (> floordiv 1))
(assert gt_4)
(define-fun lt_11 () Bool (< 1 mul_53))
(assert lt_11)
(define-fun mul_59 () Int (* hidden_states_size0 12))
(define-fun mul_60 () Int (* mul_59 floordiv))
(define-fun mul_61 () Int (* mul_60 64))
(define-fun eq_98 () Bool (= mul_61 0))
(define-fun not__69 () Bool (not eq_98))
(assert not__69)
(define-fun lt_12 () Bool (< hidden_states_size0 2))
(define-fun not__70 () Bool (not lt_12))
(assert not__70)
(define-fun lt_13 () Bool (< 64 mul_53))
(assert lt_13)
(define-fun lt_14 () Bool (< floordiv 2))
(define-fun not__71 () Bool (not lt_14))
(assert not__71)
(define-fun lt_15 () Bool (< 768 mul_53))
(assert lt_15)
(define-fun floordiv_1 () Int (div hidden_states_size1 64))
(define-fun eq_99 () Bool (= floordiv_1 floordiv_1))
(assert eq_99)
(define-fun eq_100 () Bool (= mul_11 0))
(define-fun not__72 () Bool (not eq_100))
(assert not__72)
(define-fun eq_101 () Bool (= mul_50 0))
(define-fun not__73 () Bool (not eq_101))
(assert not__73)
(define-fun output0_size0 () Int hidden_states_size0)
(define-fun output0_size1 () Int 12)
(define-fun output0_size2 () Int floordiv)
(define-fun output0_size3 () Int 64)
(define-fun output0_stride0 () Int mul_53)
(define-fun output0_stride1 () Int 64)
(define-fun output0_stride2 () Int 768)
(define-fun output0_stride3 () Int 1)
(define-fun output0_storage_offset () Int 0)
(define-fun output1_size0 () Int hidden_states_size0)
(define-fun output1_size1 () Int 12)
(define-fun output1_size2 () Int floordiv)
(define-fun output1_size3 () Int 64)
(define-fun output1_stride0 () Int mul_53)
(define-fun output1_stride1 () Int 64)
(define-fun output1_stride2 () Int 768)
(define-fun output1_stride3 () Int 1)
(define-fun output1_storage_offset () Int 0)
(define-fun output2_size0 () Int hidden_states_size0)
(define-fun output2_size1 () Int 12)
(define-fun output2_size2 () Int floordiv)
(define-fun output2_size3 () Int 64)
(define-fun output2_stride0 () Int mul_53)
(define-fun output2_stride1 () Int 64)
(define-fun output2_stride2 () Int 768)
(define-fun output2_stride3 () Int 1)
(define-fun output2_storage_offset () Int 0)
(check-sat)
(get-value (hidden_states_size0 hidden_states_size1 hidden_states_size2 hidden_states_stride0 hidden_states_stride1 hidden_states_stride2 hidden_states_storage_offset band_mask_size0 band_mask_size1 band_mask_size2 band_mask_size3 band_mask_size4 band_mask_stride0 band_mask_stride1 band_mask_stride2 band_mask_stride3 band_mask_stride4 band_mask_storage_offset from_mask__base_size0 from_mask__base_size1 from_mask__base_stride0 from_mask__base_stride1 from_mask__base_storage_offset from_mask_size0 from_mask_size1 from_mask_size2 from_mask_size3 from_mask_stride0 from_mask_stride1 from_mask_stride2 from_mask_stride3 from_mask_storage_offset to_mask_size0 to_mask_size1 to_mask_size2 to_mask_size3 to_mask_stride0 to_mask_stride1 to_mask_stride2 to_mask_stride3 to_mask_storage_offset from_blocked_mask_size0 from_blocked_mask_size1 from_blocked_mask_size2 from_blocked_mask_stride0 from_blocked_mask_stride1 from_blocked_mask_stride2 from_blocked_mask_storage_offset output0_size0 output0_size1 output0_size2 output0_size3 output0_stride0 output0_stride1 output0_stride2 output0_stride3 output0_storage_offset output1_size0 output1_size1 output1_size2 output1_size3 output1_stride0 output1_stride1 output1_stride2 output1_stride3 output1_storage_offset output2_size0 output2_size1 output2_size2 output2_size3 output2_stride0 output2_stride1 output2_stride2 output2_stride3 output2_storage_offset))
